p cnf 763 2350
c ind 664 728 760 672 684 688 748 758 752 690 0
c ind 676 678 682 750 756 761 720 722 724 704 0
c ind 738 746 754 680 686 700 702 706 718 726 0
c ind 736 708 674 692 698 710 670 694 696 666 0
c ind 712 714 662 732 668 653 716 734 730 740 0
c ind 742 744 656 654 652 715 673 651 655 657 0
c ind 659 739 660 650 658 741 759 667 731 669 0
c ind 733 749 753 665 685 703 705 707 713 717 0
c ind 663 737 743 695 701 711 727 729 735 691 0
c ind 697 699 677 689 693 709 723 745 671 757 0
c ind 721 681 687 661 755 675 679 725 747 751 0
c ind 683 719 1 0
c ret 522 523 524 525 526 527 528 529 530 531 0
c ret 532 533 534 535 536 537 538 539 540 541 0
c ret 542 543 544 545 546 547 548 549 550 551 0
c ret 552 553 554 555 556 557 558 559 560 561 0
c ret 562 563 564 565 566 567 568 569 570 571 0
c ret 572 573 574 575 576 577 578 579 580 581 0
c ret 582 583 584 585 586 587 588 589 590 591 0
c ret 592 593 594 595 596 597 598 599 600 601 0
c ret 602 603 604 605 606 607 608 609 610 611 0
c ret 612 613 614 615 616 617 618 619 620 621 0
c ret 622 623 624 625 626 627 628 629 630 631 0
c ret 632 633 634 635 636 637 638 639 640 641 0
c ret 642 643 644 645 646 647 648 649 0
2 -3 -94 -121 -156 0
-2 156 0
-2 3 0
-2 121 0
-2 94 0
3 -4 -46 -68 -80 0
-3 80 0
-3 4 0
-3 68 0
-3 46 0
4 -5 -10 -15 -25 0
-4 25 0
-4 5 0
-4 15 0
-4 10 0
5 6 9 0
5 6 -8 -561 0
5 6 8 561 0
-5 -6 0
-5 8 -9 -561 0
-5 -8 -9 561 0
6 -7 570 741 742 0
6 7 -570 741 742 0
-6 -741 0
-6 -7 -570 0
-6 -742 0
-6 7 570 0
7 635 -743 0
7 -635 743 0
-7 -635 -743 0
-7 635 743 0
8 626 -727 0
8 -626 727 0
-8 -626 -727 0
-8 626 727 0
9 725 726 0
-9 -725 0
-9 -726 0
10 11 14 0
10 11 -13 -566 0
10 11 13 566 0
-10 -11 0
-10 13 -14 -566 0
-10 -13 -14 566 0
11 -12 571 743 744 0
11 12 -571 743 744 0
-11 -743 0
-11 -12 -571 0
-11 -744 0
-11 12 571 0
12 636 -745 0
12 -636 745 0
-12 -636 -745 0
-12 636 745 0
13 631 -735 0
13 -631 735 0
-13 -631 -735 0
-13 631 735 0
14 733 734 0
-14 -733 0
-14 -734 0
15 16 -20 718 0
15 16 18 -20 0
-15 20 0
-15 -16 0
-15 -18 -718 0
16 -17 565 731 732 0
16 17 -565 731 732 0
-16 -731 0
-16 -17 -565 0
-16 -732 0
-16 17 565 0
17 630 -733 0
17 -630 733 0
-17 -630 -733 0
-17 630 733 0
18 -19 -621 0
18 19 621 0
-18 -19 621 0
-18 19 -621 0
19 556 -655 0
19 -556 655 0
-19 -556 -655 0
-19 556 655 0
20 21 24 0
20 21 -23 -559 0
20 21 23 559 0
-20 -21 0
-20 23 -24 -559 0
-20 -23 -24 559 0
21 -22 551 707 708 0
21 22 -551 707 708 0
-21 -707 0
-21 -22 -551 0
-21 -708 0
-21 22 551 0
22 616 -709 0
22 -616 709 0
-22 -616 -709 0
-22 616 709 0
23 624 -723 0
23 -624 723 0
-23 -624 -723 0
-23 624 723 0
24 721 722 0
-24 -721 0
-24 -722 0
25 -26 -31 -36 -41 0
-25 41 0
-25 26 0
-25 36 0
-25 31 0
26 27 30 0
26 27 -29 -569 0
26 27 29 569 0
-26 -27 0
-26 29 -30 -569 0
-26 -29 -30 569 0
27 -28 560 723 724 0
27 28 -560 723 724 0
-27 -723 0
-27 -28 -560 0
-27 -724 0
-27 28 560 0
28 625 -725 0
28 -625 725 0
-28 -625 -725 0
-28 625 725 0
29 634 -741 0
29 -634 741 0
-29 -634 -741 0
-29 634 741 0
30 739 740 0
-30 -739 0
-30 -740 0
31 33 34 0
31 32 34 522 0
31 -32 34 -522 0
-31 -34 0
-31 -32 -33 522 0
-31 32 -33 -522 0
32 587 -661 0
32 -587 661 0
-32 -587 -661 0
-32 587 661 0
33 760 761 0
-33 -760 0
-33 -761 0
34 -35 529 671 672 0
34 35 -529 671 672 0
-34 -671 0
-34 -35 -529 0
-34 -672 0
-34 35 529 0
35 594 -673 0
35 -594 673 0
-35 -594 -673 0
-35 594 673 0
36 37 40 0
36 37 -39 -567 0
36 37 39 567 0
-36 -37 0
-36 39 -40 -567 0
-36 -39 -40 567 0
37 -38 558 719 720 0
37 38 -558 719 720 0
-37 -719 0
-37 -38 -558 0
-37 -720 0
-37 38 558 0
38 623 -721 0
38 -623 721 0
-38 -623 -721 0
-38 623 721 0
39 632 -737 0
39 -632 737 0
-39 -632 -737 0
-39 632 737 0
40 735 736 0
-40 -735 0
-40 -736 0
41 42 45 0
41 42 -44 -553 0
41 42 44 553 0
-41 -42 0
-41 44 -45 -553 0
-41 -44 -45 553 0
42 -43 564 729 730 0
42 43 -564 729 730 0
-42 -729 0
-42 -43 -564 0
-42 -730 0
-42 43 564 0
43 629 -731 0
43 -629 731 0
-43 -629 -731 0
-43 629 731 0
44 618 -713 0
44 -618 713 0
-44 -618 -713 0
-44 618 713 0
45 711 712 0
-45 -711 0
-45 -712 0
46 -47 52 54 -56 0
-46 56 0
-46 -54 0
-46 47 0
-46 -52 0
47 48 51 0
47 48 -50 -575 0
47 48 50 575 0
-47 -48 0
-47 50 -51 -575 0
-47 -50 -51 575 0
48 -49 580 755 756 0
48 49 -580 755 756 0
-48 -755 0
-48 -49 -580 0
-48 -756 0
-48 49 580 0
49 645 -757 0
49 -645 757 0
-49 -645 -757 0
-49 645 757 0
50 640 -751 0
50 -640 751 0
-50 -640 -751 0
-50 640 751 0
51 749 750 0
-51 -749 0
-51 -750 0
52 -53 549 703 704 0
52 53 -549 703 704 0
-52 -703 0
-52 -53 -549 0
-52 -704 0
-52 53 549 0
53 614 -705 0
53 -614 705 0
-53 -614 -705 0
-53 614 705 0
54 -55 534 679 680 0
54 55 -534 679 680 0
-54 -679 0
-54 -55 -534 0
-54 -680 0
-54 55 534 0
55 599 -681 0
55 -599 681 0
-55 -599 -681 0
-55 599 681 0
56 -57 62 64 0
56 -57 62 -66 0
-56 57 0
-56 -62 0
-56 -64 66 0
57 58 61 0
57 58 -60 -555 0
57 58 60 555 0
-57 -58 0
-57 60 -61 -555 0
-57 -60 -61 555 0
58 -59 554 713 714 0
58 59 -554 713 714 0
-58 -713 0
-58 -59 -554 0
-58 -714 0
-58 59 554 0
59 619 -715 0
59 -619 715 0
-59 -619 -715 0
-59 619 715 0
60 620 -717 0
60 -620 717 0
-60 -620 -717 0
-60 620 717 0
61 715 716 0
-61 -715 0
-61 -716 0
62 -63 581 757 758 0
62 63 -581 757 758 0
-62 -757 0
-62 -63 -581 0
-62 -758 0
-62 63 581 0
63 646 -759 0
63 -646 759 0
-63 -646 -759 0
-63 646 759 0
64 65 583 0
-64 -583 0
-64 -65 0
65 -584 649 0
-65 584 0
-65 -649 0
66 -67 -647 0
66 67 647 0
-66 -67 647 0
-66 67 -647 0
67 582 -660 0
67 -582 660 0
-67 -582 -660 0
-67 582 660 0
68 71 73 -75 0
68 69 73 -75 0
-68 75 0
-68 -73 0
-68 -69 -71 0
69 -70 -577 0
-69 577 0
-69 70 0
70 642 -753 0
70 -642 753 0
-70 -642 -753 0
-70 642 753 0
71 -72 -641 0
71 72 641 0
-71 -72 641 0
-71 72 -641 0
72 576 -658 0
72 -576 658 0
-72 -576 -658 0
-72 576 658 0
73 -74 523 661 662 0
73 74 -523 661 662 0
-73 -661 0
-73 -74 -523 0
-73 -662 0
-73 74 523 0
74 588 -663 0
74 -588 663 0
-74 -588 -663 0
-74 588 663 0
75 76 79 0
75 76 -78 -548 0
75 76 78 548 0
-75 -76 0
-75 78 -79 -548 0
-75 -78 -79 548 0
76 -77 539 689 690 0
76 77 -539 689 690 0
-76 -689 0
-76 -77 -539 0
-76 -690 0
-76 77 539 0
77 604 -691 0
77 -604 691 0
-77 -604 -691 0
-77 604 691 0
78 613 -703 0
78 -613 703 0
-78 -613 -703 0
-78 613 703 0
79 701 702 0
-79 -701 0
-79 -702 0
80 -81 88 92 0
80 -81 88 90 0
-80 81 0
-80 -88 0
-80 -90 -92 0
81 82 86 0
81 84 86 0
-81 -86 0
-81 -82 -84 0
82 -83 -547 0
-82 547 0
-82 83 0
83 612 -701 0
83 -612 701 0
-83 -612 -701 0
-83 612 701 0
84 -85 -611 0
84 85 611 0
-84 -85 611 0
-84 85 -611 0
85 546 -654 0
85 -546 654 0
-85 -546 -654 0
-85 546 654 0
86 -87 535 681 682 0
86 87 -535 681 682 0
-86 -681 0
-86 -87 -535 0
-86 -682 0
-86 87 535 0
87 600 -683 0
87 -600 683 0
-87 -600 -683 0
-87 600 683 0
88 -89 532 675 676 0
88 89 -532 675 676 0
-88 -675 0
-88 -89 -532 0
-88 -676 0
-88 89 532 0
89 597 -677 0
89 -597 677 0
-89 -597 -677 0
-89 597 677 0
90 -91 -525 0
-90 525 0
-90 91 0
91 590 -665 0
91 -590 665 0
-91 -590 -665 0
-91 590 665 0
92 -93 -589 0
92 93 589 0
-92 -93 589 0
-92 93 -589 0
93 524 -650 0
93 -524 650 0
-93 -524 -650 0
-93 524 650 0
94 -95 -102 115 119 0
-94 102 0
-94 -119 0
-94 95 0
-94 -115 0
95 96 100 698 0
95 96 98 100 0
-95 -100 0
-95 -96 0
-95 -98 -698 0
96 -97 526 665 666 0
96 97 -526 665 666 0
-96 -665 0
-96 -97 -526 0
-96 -666 0
-96 97 526 0
97 591 -667 0
97 -591 667 0
-97 -591 -667 0
-97 591 667 0
98 -99 -609 0
98 99 609 0
-98 -99 609 0
-98 99 -609 0
99 544 -653 0
99 -544 653 0
-99 -544 -653 0
-99 544 653 0
100 -101 543 695 696 0
100 101 -543 695 696 0
-100 -695 0
-100 -101 -543 0
-100 -696 0
-100 101 543 0
101 608 -697 0
101 -608 697 0
-101 -608 -697 0
-101 608 697 0
102 -103 109 113 0
102 -103 109 111 0
-102 103 0
-102 -109 0
-102 -111 -113 0
65 103 104 0
66 103 104 0
103 104 583 0
-103 -104 0
-65 -66 -103 -583 0
104 -105 -107 0
-104 105 0
-104 107 0
105 -106 -595 0
105 106 595 0
-105 -106 595 0
-105 106 -595 0
106 530 -651 0
106 -530 651 0
-106 -530 -651 0
-106 530 651 0
107 -108 -531 0
-107 531 0
-107 108 0
108 596 -675 0
108 -596 675 0
-108 -596 -675 0
-108 596 675 0
109 -110 528 669 670 0
109 110 -528 669 670 0
-109 -669 0
-109 -110 -528 0
-109 -670 0
-109 110 528 0
110 593 -671 0
110 -593 671 0
-110 -593 -671 0
-110 593 671 0
111 -112 -637 0
111 112 637 0
-111 -112 637 0
-111 112 -637 0
112 572 -657 0
112 -572 657 0
-112 -572 -657 0
-112 572 657 0
113 -114 -573 0
-113 573 0
-113 114 0
114 638 -747 0
114 -638 747 0
-114 -638 -747 0
-114 638 747 0
115 -116 728 0
115 117 563 728 0
-115 -728 0
-115 116 -563 0
-115 116 -117 0
116 628 729 0
-116 -628 0
-116 -729 0
117 -118 -627 0
117 118 627 0
-117 -118 627 0
-117 118 -627 0
118 562 -656 0
118 -562 656 0
-118 -562 -656 0
-118 562 656 0
119 -120 664 0
92 119 525 664 0
-119 -664 0
-119 120 -525 0
-92 -119 120 0
120 590 665 0
-120 -590 0
-120 -665 0
121 -122 -132 -138 -146 0
-121 146 0
-121 122 0
-121 138 0
-121 132 0
122 123 125 -127 0
122 125 -127 692 0
-122 127 0
-122 -125 0
-122 -123 -692 0
123 -124 -605 0
123 124 605 0
-123 -124 605 0
-123 124 -605 0
124 540 -652 0
124 -540 652 0
-124 -540 -652 0
-124 540 652 0
125 -126 536 683 684 0
125 126 -536 683 684 0
-125 -683 0
-125 -126 -536 0
-125 -684 0
-125 126 536 0
126 601 -685 0
126 -601 685 0
-126 -601 -685 0
-126 601 685 0
117 127 128 0
98 127 130 0
127 128 130 0
98 117 127 0
-98 -127 -128 0
-117 -127 -130 0
128 -129 -545 0
-128 545 0
-128 129 0
129 610 -699 0
129 -610 699 0
-129 -610 -699 0
-129 610 699 0
130 -131 -563 0
-130 563 0
-130 131 0
131 628 -729 0
131 -628 729 0
-131 -628 -729 0
-131 628 729 0
105 132 133 -135 0
132 133 -135 674 0
-132 135 0
-132 -133 0
-105 -132 -674 0
133 -134 537 685 686 0
133 134 -537 685 686 0
-133 -685 0
-133 -134 -537 0
-133 -686 0
-133 134 537 0
134 602 -687 0
134 -602 687 0
-134 -602 -687 0
-134 602 687 0
135 136 700 0
84 135 136 0
-135 -136 0
-84 -135 -700 0
136 -137 542 693 694 0
136 137 -542 693 694 0
-136 -693 0
-136 -137 -542 0
-136 -694 0
-136 137 542 0
137 607 -695 0
137 -607 695 0
-137 -607 -695 0
-137 607 695 0
71 138 139 -141 0
138 139 -141 752 0
-138 141 0
-138 -139 0
-71 -138 -752 0
139 -140 538 687 688 0
139 140 -538 687 688 0
-139 -687 0
-139 -140 -538 0
-139 -688 0
-139 140 538 0
140 603 -689 0
140 -603 689 0
-140 -603 -689 0
-140 603 689 0
123 141 144 0
141 142 144 0
-141 -144 0
-123 -141 -142 0
142 -143 -541 0
-142 541 0
-142 143 0
143 606 -693 0
143 -606 693 0
-143 -606 -693 0
-143 606 693 0
144 -145 533 677 678 0
144 145 -533 677 678 0
-144 -677 0
-144 -145 -533 0
-144 -678 0
-144 145 533 0
145 598 -679 0
145 -598 679 0
-145 -598 -679 0
-145 598 679 0
146 147 149 -151 0
146 149 -151 754 0
-146 151 0
-146 -149 0
-146 -147 -754 0
147 -148 -643 0
147 148 643 0
-147 -148 643 0
-147 148 -643 0
148 578 -659 0
148 -578 659 0
-148 -578 -659 0
-148 578 659 0
149 -150 527 667 668 0
149 150 -527 667 668 0
-149 -667 0
-149 -150 -527 0
-149 -668 0
-149 150 527 0
150 592 -669 0
150 -592 669 0
-150 -592 -669 0
-150 592 669 0
151 152 154 0
18 151 152 0
-151 -152 0
-18 -151 -154 0
152 -153 574 747 748 0
152 153 -574 747 748 0
-152 -747 0
-152 -153 -574 0
-152 -748 0
-152 153 574 0
153 639 -749 0
153 -639 749 0
-153 -639 -749 0
-153 639 749 0
154 -155 -557 0
-154 557 0
-154 155 0
155 622 -719 0
155 -622 719 0
-155 -622 -719 0
-155 622 719 0
156 -157 -281 -478 -502 0
-156 502 0
-156 157 0
-156 478 0
-156 281 0
157 -158 -229 -242 -254 0
-157 254 0
-157 158 0
-157 242 0
-157 229 0
158 -159 -168 -173 -187 0
-158 187 0
-158 159 0
-158 173 0
-158 168 0
159 160 161 -163 0
159 161 -163 751 0
-159 163 0
-159 -161 0
-159 -160 -751 0
-72 160 641 0
-160 -641 0
72 -160 0
161 162 540 691 0
161 162 652 691 0
-161 -162 0
-161 -691 0
-161 -540 -652 0
162 -540 605 652 0
162 540 605 -652 0
-162 -605 0
-162 -540 -652 0
-162 540 652 0
163 166 -699 0
163 -164 166 0
163 -165 166 0
-163 -166 0
-163 164 165 699 0
164 -546 -654 0
-164 546 0
-164 654 0
165 -546 611 654 0
165 546 611 -654 0
-165 -611 0
-165 -546 -654 0
-165 546 654 0
166 -167 -753 0
-166 753 0
-166 167 0
-148 167 643 0
-167 -643 0
148 -167 0
168 169 -170 172 0
168 -170 172 727 0
-168 170 0
-168 -172 0
-168 -169 -727 0
169 -562 627 656 0
169 562 627 -656 0
-169 -627 0
-169 -562 -656 0
-169 562 656 0
165 170 171 0
170 697 699 0
170 171 699 0
165 170 697 0
-165 -170 -699 0
-170 -171 -697 0
171 -544 609 653 0
171 544 609 -653 0
-171 -609 0
-171 -544 -653 0
-171 544 653 0
171 172 544 697 0
171 172 653 697 0
-171 -172 0
-172 -697 0
-172 -544 -653 0
173 -174 -177 -180 -183 0
-173 183 0
-173 174 0
-173 180 0
-173 177 0
174 175 176 0
174 721 731 0
174 176 731 0
174 175 721 0
-174 -175 -731 0
-174 -176 -721 0
-17 175 -565 0
-175 565 0
17 -175 0
-23 176 -559 0
-176 559 0
23 -176 0
177 178 729 0
177 179 725 0
177 178 179 0
177 725 729 0
-177 -178 -725 0
-177 -179 -729 0
-8 178 -561 0
-178 561 0
8 -178 0
-43 179 -564 0
-179 564 0
43 -179 0
180 181 182 0
180 745 759 0
180 182 759 0
180 181 745 0
-180 -181 -759 0
-180 -182 -745 0
-67 181 647 0
-181 -647 0
67 -181 0
-112 182 637 0
-182 -637 0
112 -182 0
183 185 -727 0
183 -184 185 0
-169 183 185 0
-183 -185 0
169 -183 184 727 0
184 -562 -656 0
-184 562 0
-184 656 0
185 186 556 717 0
185 186 655 717 0
-185 -186 0
-185 -717 0
-185 -556 -655 0
186 -556 621 655 0
186 556 621 -655 0
-186 -621 0
-186 -556 -655 0
-186 556 655 0
187 -188 -216 -222 -225 0
-187 225 0
-187 188 0
-187 222 0
-187 216 0
188 -189 -197 -202 -207 0
-188 207 0
-188 189 0
-188 202 0
-188 197 0
189 -191 -194 679 0
189 190 -191 -194 0
-189 194 0
-189 191 0
-189 -190 -679 0
-55 190 -534 0
-190 534 0
55 -190 0
191 -192 -592 0
191 -192 -668 0
191 -192 -669 0
-191 192 0
-191 592 668 669 0
192 193 686 0
192 193 685 687 0
-192 -193 0
-192 -686 -687 0
-192 -685 -686 0
193 523 661 662 0
-193 -523 0
-193 -662 0
-193 -661 0
186 194 195 196 0
194 -195 -196 717 0
194 195 196 717 0
186 194 -195 -196 0
-194 195 -196 0
-194 -195 196 0
-186 -194 -717 0
195 633 739 0
-195 -633 0
-195 -739 0
196 633 -738 0
196 -738 739 0
-196 738 0
-196 -633 -739 0
197 198 199 -200 0
197 199 -200 -732 0
-197 200 0
-197 -199 0
-197 -198 732 0
198 630 733 0
-198 -630 0
-198 -733 0
199 -728 -729 0
199 -729 -730 0
-199 729 0
-199 728 730 0
200 201 680 0
200 201 679 681 0
-200 -201 0
-200 -680 -681 0
-200 -679 -680 0
201 -725 -726 0
201 -726 -727 0
-201 726 0
-201 725 727 0
202 203 204 -205 0
202 204 -205 697 0
-202 205 0
-202 -204 0
-202 -203 -697 0
203 -544 -653 0
-203 544 0
-203 653 0
204 566 733 734 0
-204 -566 0
-204 -734 0
-204 -733 0
205 206 -636 0
205 206 -744 0
205 206 -745 0
-205 -206 0
-205 636 744 745 0
206 632 736 737 0
-206 -632 0
-206 -737 0
-206 -736 0
207 -208 -210 -212 -214 0
-207 214 0
-207 208 0
-207 212 0
-207 210 0
208 209 671 0
208 209 670 672 0
-208 -209 0
-208 -671 -672 0
-208 -670 -671 0
209 -710 -711 0
209 -711 -712 0
-209 711 0
-209 710 712 0
210 211 669 0
210 211 668 670 0
-210 -211 0
-210 -669 -670 0
-210 -668 -669 0
211 -714 -715 0
211 -715 -716 0
-211 715 0
-211 714 716 0
212 213 741 0
212 213 740 742 0
-212 -213 0
-212 -741 -742 0
-212 -740 -741 0
213 -664 -665 0
213 -665 -666 0
-213 665 0
-213 664 666 0
214 215 735 0
214 215 734 736 0
-214 -215 0
-214 -735 -736 0
-214 -734 -735 0
215 -736 -737 0
215 -737 -738 0
-215 737 0
-215 736 738 0
162 216 217 -219 0
216 217 -219 691 0
-216 219 0
-216 -217 0
-162 -216 -691 0
217 -218 -723 0
-217 723 0
-217 218 0
-28 218 -560 0
-218 560 0
28 -218 0
219 220 673 0
219 221 663 0
219 220 221 0
219 663 673 0
-219 -220 -663 0
-219 -221 -673 0
-93 220 589 0
-220 -589 0
93 -220 0
-106 221 595 0
-221 -595 0
106 -221 0
222 223 224 0
222 737 743 0
222 224 743 0
222 223 737 0
-222 -223 -743 0
-222 -224 -737 0
-12 223 -571 0
-223 571 0
12 -223 0
224 -568 633 -739 0
224 -568 -633 739 0
-224 568 0
-224 -633 -739 0
-224 633 739 0
225 226 227 0
225 709 739 0
225 227 739 0
225 226 709 0
-225 -226 -739 0
-225 -227 -709 0
-29 226 -569 0
-226 569 0
29 -226 0
227 -228 -552 0
-227 552 0
-227 228 0
228 617 -711 0
228 -617 711 0
-228 -617 -711 0
-228 617 711 0
229 -230 -233 -236 -239 0
-229 239 0
-229 230 0
-229 236 0
-229 233 0
230 231 232 0
230 703 719 0
230 232 719 0
230 231 703 0
-230 -231 -719 0
-230 -232 -703 0
-38 231 -558 0
-231 558 0
38 -231 0
-53 232 -549 0
-232 549 0
53 -232 0
233 234 235 0
233 661 760 0
233 235 760 0
233 234 661 0
-233 -234 -760 0
-233 -235 -661 0
-32 234 -522 0
-234 522 0
32 -234 0
-74 235 -523 0
-235 523 0
74 -235 0
236 237 711 0
236 238 707 0
236 237 238 0
236 707 711 0
-236 -237 -707 0
-236 -238 -711 0
-22 237 -551 0
-237 551 0
22 -237 0
-44 238 -553 0
-238 553 0
44 -238 0
239 240 241 0
239 715 755 0
239 241 755 0
239 240 715 0
-239 -240 -755 0
-239 -241 -715 0
-49 240 -580 0
-240 580 0
49 -240 0
-60 241 -555 0
-241 555 0
60 -241 0
242 -244 -247 675 0
242 243 -244 -247 0
-242 247 0
-242 244 0
-242 -243 -675 0
-89 243 -532 0
-243 532 0
89 -243 0
244 245 695 0
244 246 681 0
244 245 246 0
244 681 695 0
-244 -245 -681 0
-244 -246 -695 0
-87 245 -535 0
-245 535 0
87 -245 0
-101 246 -543 0
-246 543 0
101 -246 0
247 248 -249 252 0
247 -249 252 677 0
-247 249 0
-247 -252 0
-247 -248 -677 0
-145 248 -533 0
-248 533 0
145 -248 0
249 250 251 0
249 701 749 0
249 251 749 0
249 250 701 0
-249 -250 -749 0
-249 -251 -701 0
-50 250 -575 0
-250 575 0
50 -250 0
-78 251 -548 0
-251 548 0
78 -251 0
252 -253 -747 0
-252 747 0
-252 253 0
-153 253 -574 0
-253 574 0
153 -253 0
254 -255 -269 -275 -278 0
-254 278 0
-254 255 0
-254 275 0
-254 269 0
255 -256 -259 -262 -265 0
-255 265 0
-255 256 0
-255 262 0
-255 259 0
256 257 685 0
256 258 683 0
256 257 258 0
256 683 685 0
-256 -257 -683 0
-256 -258 -685 0
-126 257 -536 0
-257 536 0
126 -257 0
-134 258 -537 0
-258 537 0
134 -258 0
259 260 693 0
259 261 689 0
259 260 261 0
259 689 693 0
-259 -260 -689 0
-259 -261 -693 0
-77 260 -539 0
-260 539 0
77 -260 0
-137 261 -542 0
-261 542 0
137 -261 0
262 263 264 0
262 713 733 0
262 264 733 0
262 263 713 0
-262 -263 -733 0
-262 -264 -713 0
-13 263 -566 0
-263 566 0
13 -263 0
-59 264 -554 0
-264 554 0
59 -264 0
265 266 705 0
265 267 687 0
265 266 267 0
265 687 705 0
-265 -266 -687 0
-265 -267 -705 0
-140 266 -538 0
-266 538 0
140 -266 0
267 -268 -550 0
-267 550 0
-267 268 0
268 615 -707 0
268 -615 707 0
-268 -615 -707 0
-268 615 707 0
269 270 -271 274 0
269 -271 274 741 0
-269 271 0
-269 -274 0
-269 -270 -741 0
-7 270 -570 0
-270 570 0
7 -270 0
271 272 757 0
271 273 735 0
271 272 273 0
271 735 757 0
-271 -272 -735 0
-271 -273 -757 0
-39 272 -567 0
-272 567 0
39 -272 0
273 -581 646 -759 0
273 -581 -646 759 0
-273 581 0
-273 -646 -759 0
-273 646 759 0
274 646 -758 -759 0
274 -646 -758 759 0
274 646 758 759 0
-274 -646 758 0
-274 758 -759 0
-274 -646 -759 0
-274 646 -758 759 0
275 276 669 0
275 277 665 0
275 276 277 0
275 665 669 0
-275 -276 -665 0
-275 -277 -669 0
276 -526 591 -667 0
276 -526 -591 667 0
-276 526 0
-276 -591 -667 0
-276 591 667 0
-110 277 -528 0
-277 528 0
110 -277 0
278 279 280 0
278 667 671 0
278 280 671 0
278 279 667 0
-278 -279 -671 0
-278 -280 -667 0
279 -529 594 -673 0
279 -529 -594 673 0
-279 529 0
-279 -594 -673 0
-279 594 673 0
-150 280 -527 0
-280 527 0
150 -280 0
281 -282 -322 -409 -441 0
-281 441 0
-281 282 0
-281 409 0
-281 322 0
282 -283 -289 -294 -305 0
-282 305 0
-282 283 0
-282 294 0
-282 289 0
283 -284 -285 -286 -288 0
-283 288 0
-283 284 0
-283 286 0
-283 285 0
70 89 284 0
284 676 752 0
89 284 752 0
70 284 676 0
-70 -284 -752 0
-89 -284 -676 0
49 77 285 0
285 690 756 0
77 285 756 0
49 285 690 0
-49 -285 -756 0
-77 -285 -690 0
78 286 754 0
286 287 702 0
78 286 287 0
286 702 754 0
-78 -286 -702 0
-286 -287 -754 0
287 644 -755 0
287 -644 755 0
-287 -644 -755 0
-287 644 755 0
108 288 688 0
140 288 674 0
108 140 288 0
288 674 688 0
-108 -288 -674 0
-140 -288 -688 0
289 -290 -291 -292 -293 0
-289 293 0
-289 290 0
-289 292 0
-289 291 0
126 290 692 0
143 290 684 0
126 143 290 0
290 684 692 0
-126 -290 -684 0
-143 -290 -692 0
23 137 291 0
291 694 722 0
137 291 722 0
23 291 694 0
-23 -291 -722 0
-137 -291 -694 0
110 292 748 0
153 292 670 0
110 153 292 0
292 670 748 0
-110 -292 -670 0
-153 -292 -748 0
55 293 686 0
134 293 680 0
55 134 293 0
293 680 686 0
-55 -293 -680 0
-134 -293 -686 0
294 -295 -296 -297 -300 0
-294 300 0
-294 295 0
-294 297 0
-294 296 0
22 295 746 0
114 295 708 0
22 114 295 0
295 708 746 0
-22 -295 -708 0
-114 -295 -746 0
17 296 736 0
39 296 732 0
17 39 296 0
296 732 736 0
-17 -296 -732 0
-39 -296 -736 0
43 297 -298 299 0
297 -298 299 730 0
-297 298 0
-297 -299 0
-43 -297 -730 0
32 50 298 0
298 750 761 0
50 298 761 0
32 298 750 0
-32 -298 -761 0
-50 -298 -750 0
299 -687 -688 0
299 -688 -689 0
299 603 688 689 0
-299 688 -689 0
-299 687 -688 689 0
-299 -603 688 0
300 -301 -302 -303 -304 0
-300 304 0
-300 301 0
-300 303 0
-300 302 0
60 150 301 0
301 668 716 0
150 301 716 0
60 301 668 0
-60 -301 -716 0
-150 -301 -668 0
87 302 718 0
155 302 682 0
87 155 302 0
302 682 718 0
-87 -302 -682 0
-155 -302 -718 0
28 38 303 0
303 720 724 0
38 303 724 0
28 303 720 0
-28 -303 -724 0
-38 -303 -720 0
83 145 304 0
304 678 700 0
145 304 700 0
83 304 678 0
-83 -304 -700 0
-145 -304 -678 0
305 -306 -312 -315 -318 0
-305 318 0
-305 306 0
-305 315 0
-305 312 0
111 306 307 -308 0
306 307 -308 746 0
-306 308 0
-306 -307 0
-111 -306 -746 0
-268 307 550 705 706 0
268 307 -550 705 706 0
-307 -705 0
-268 -307 -550 0
-307 -706 0
268 -307 550 0
308 309 310 0
228 308 310 552 0
-228 308 310 -552 0
-308 -310 0
-228 -308 -309 552 0
228 -308 -309 -552 0
309 709 710 0
-309 -709 0
-309 -710 0
310 -311 568 737 738 0
310 311 -568 737 738 0
-310 -737 0
-310 -311 -568 0
-310 -738 0
-310 311 568 0
311 633 -739 0
311 -633 739 0
-311 -633 -739 0
-311 633 739 0
8 312 -313 314 0
312 -313 314 726 0
-312 313 0
-312 -314 0
-8 -312 -726 0
13 101 313 0
313 696 734 0
101 313 734 0
13 313 696 0
-13 -313 -734 0
-101 -313 -696 0
314 -662 -663 0
314 -524 -650 -663 0
-314 663 0
-314 524 662 0
-314 650 662 0
7 315 -316 317 0
315 -316 317 742 0
-315 316 0
-315 -317 0
-7 -315 -742 0
74 316 698 0
129 316 662 0
74 129 316 0
316 662 698 0
-74 -316 -662 0
-129 -316 -698 0
317 591 -666 -667 0
317 -591 -666 667 0
-317 666 0
-317 -591 -667 0
-317 591 667 0
318 319 320 -321 0
147 318 320 -321 0
-318 321 0
-318 -320 0
-147 -318 -319 0
-287 319 -579 0
-319 579 0
287 -319 0
320 -683 -684 0
320 -684 -685 0
320 601 684 685 0
-320 684 -685 0
-320 683 -684 685 0
-320 -601 684 0
12 29 321 0
321 740 744 0
29 321 744 0
12 321 740 0
-12 -321 -744 0
-29 -321 -740 0
322 -323 -345 -365 -388 0
-322 388 0
-322 323 0
-322 365 0
-322 345 0
323 -324 -329 -334 -340 0
-323 340 0
-323 324 0
-323 334 0
-323 329 0
324 325 326 -327 0
324 326 -327 -674 0
-324 327 0
-324 -326 0
-324 -325 674 0
325 596 675 0
-325 -596 0
-325 -675 0
326 608 696 697 0
-326 -608 0
-326 -697 0
-326 -696 0
327 328 -599 0
327 328 -680 0
327 328 -681 0
-327 -328 0
-327 599 680 681 0
328 597 676 677 0
-328 -597 0
-328 -677 0
-328 -676 0
329 -331 333 -670 0
329 330 -331 333 0
-329 331 0
-329 -333 0
-329 -330 670 0
330 593 671 0
-330 -593 0
-330 -671 0
331 332 -602 0
331 332 -686 0
331 332 -687 0
-331 -332 0
-331 602 686 687 0
332 598 678 679 0
-332 -598 0
-332 -679 0
-332 -678 0
333 604 690 691 0
-333 -604 0
-333 -691 0
-333 -690 0
334 -336 339 -742 0
334 335 -336 339 0
-334 336 0
-334 -339 0
-334 -335 742 0
335 635 743 0
-335 -635 0
-335 -743 0
336 337 -694 0
336 338 -662 0
336 -662 -694 0
336 337 338 0
-336 -338 694 0
-336 -337 662 0
337 588 663 0
-337 -588 0
-337 -663 0
338 607 695 0
-338 -607 0
-338 -695 0
339 600 682 683 0
-339 -600 0
-339 -683 0
-339 -682 0
340 -342 344 -702 0
340 341 -342 344 0
-340 342 0
-340 -344 0
-340 -341 702 0
341 613 703 0
-341 -613 0
-341 -703 0
342 343 -626 0
342 343 -726 0
342 343 -727 0
-342 -343 0
-342 626 726 727 0
343 612 700 701 0
-343 -612 0
-343 -701 0
-343 -700 0
344 587 661 761 0
-344 -587 0
-344 -761 0
-344 -661 0
345 -346 -355 -360 -362 0
-345 362 0
-345 346 0
-345 360 0
-345 355 0
346 -347 -349 -351 -353 0
-346 353 0
-346 347 0
-346 351 0
-346 349 0
347 348 720 0
347 348 719 721 0
-347 -348 0
-347 -720 -721 0
-347 -719 -720 0
348 -712 -713 0
348 -713 -714 0
-348 713 0
-348 712 714 0
349 350 739 0
349 350 738 740 0
-349 -350 0
-349 -739 -740 0
-349 -738 -739 0
350 606 692 693 0
-350 -606 0
-350 -693 0
-350 -692 0
351 352 722 0
351 352 721 723 0
-351 -352 0
-351 -722 -723 0
-351 -721 -722 0
352 -723 -724 0
352 -724 -725 0
-352 724 0
-352 723 725 0
353 354 690 0
353 354 689 691 0
-353 -354 0
-353 -690 -691 0
-353 -689 -690 0
354 -666 -667 0
354 -667 -668 0
-354 667 0
-354 666 668 0
355 -357 359 -698 0
355 356 -357 359 0
-355 357 0
-355 -359 0
-355 -356 698 0
356 610 699 0
-356 -610 0
-356 -699 0
357 358 705 0
357 358 704 706 0
-357 -358 0
-357 -705 -706 0
-357 -704 -705 0
358 -700 -701 0
358 -701 -702 0
-358 701 0
-358 700 702 0
359 -702 -703 0
359 -703 -704 0
-359 703 0
-359 702 704 0
360 361 676 0
360 361 675 677 0
-360 -361 0
-360 -676 -677 0
-360 -675 -676 0
361 -677 -678 0
361 -678 -679 0
-361 678 0
-361 677 679 0
362 363 -666 0
362 364 -750 0
362 -666 -750 0
362 363 364 0
-362 -364 666 0
-362 -363 750 0
363 640 751 0
-363 -640 0
-363 -751 0
364 591 667 0
-364 -591 0
-364 -667 0
365 -366 -372 -377 -383 0
-365 383 0
-365 366 0
-365 377 0
-365 372 0
366 -368 371 -712 0
366 367 -368 371 0
-366 368 0
-366 -371 0
-366 -367 712 0
367 618 713 0
-367 -618 0
-367 -713 0
368 369 -706 0
368 370 -710 0
368 -706 -710 0
368 369 370 0
-368 -370 706 0
-368 -369 710 0
369 617 711 0
-369 -617 0
-369 -711 0
370 615 707 0
-370 -615 0
-370 -707 0
371 624 722 723 0
-371 -624 0
-371 -723 0
-371 -722 0
372 373 374 -375 0
372 374 -375 -740 0
-372 375 0
-372 -374 0
-372 -373 740 0
373 634 741 0
-373 -634 0
-373 -741 0
374 570 741 742 0
-374 -570 0
-374 -742 0
-374 -741 0
375 376 -542 0
375 376 -693 0
375 376 -694 0
-375 -376 0
-375 542 693 694 0
376 581 757 758 0
-376 -581 0
-376 -758 0
-376 -757 0
377 378 -379 382 0
377 -379 382 691 0
-377 379 0
-377 -382 0
-377 -378 -691 0
378 -540 -652 0
-378 540 0
-378 652 0
379 381 -565 0
379 380 753 0
379 380 381 0
379 -565 753 0
-379 -381 -753 0
-379 -380 565 0
380 731 732 0
-380 -731 0
-380 -732 0
381 -578 -659 0
-381 578 0
-381 659 0
382 567 735 736 0
-382 -567 0
-382 -736 0
-382 -735 0
383 384 385 -386 0
383 385 -386 759 0
-383 386 0
-383 -385 0
-383 -384 -759 0
384 -582 -660 0
-384 582 0
-384 660 0
385 543 695 696 0
-385 -543 0
-385 -696 0
-385 -695 0
386 387 -580 0
386 387 -755 0
386 387 -756 0
-386 -387 0
-386 580 755 756 0
387 538 687 688 0
-387 -538 0
-387 -688 0
-387 -687 0
388 -389 -394 -399 -404 0
-388 404 0
-388 389 0
-388 399 0
-388 394 0
389 390 391 -392 0
389 391 -392 -746 0
-389 392 0
-389 -391 0
-389 -390 746 0
390 638 747 0
-390 -638 0
-390 -747 0
391 526 665 666 0
-391 -526 0
-391 -666 0
-391 -665 0
392 393 695 0
392 393 694 696 0
-392 -393 0
-392 -695 -696 0
-392 -694 -695 0
393 536 683 684 0
-393 -536 0
-393 -684 0
-393 -683 0
394 395 396 -397 0
394 396 -397 745 0
-394 397 0
-394 -396 0
-394 -395 -745 0
395 -572 -657 0
-395 572 0
-395 657 0
396 560 723 724 0
-396 -560 0
-396 -724 0
-396 -723 0
397 398 -571 0
397 398 -743 0
397 398 -744 0
-397 -398 0
-397 571 743 744 0
398 616 708 709 0
-398 -616 0
-398 -709 0
-398 -708 0
399 -401 403 -734 0
399 400 -401 403 0
-399 401 0
-399 -403 0
-399 -400 734 0
400 631 735 0
-400 -631 0
-400 -735 0
401 402 -534 0
401 402 -679 0
401 402 -680 0
-401 -402 0
-401 534 679 680 0
402 553 711 712 0
-402 -553 0
-402 -712 0
-402 -711 0
403 537 685 686 0
-403 -537 0
-403 -686 0
-403 -685 0
404 -406 408 -730 0
404 405 -406 408 0
-404 406 0
-404 -408 0
-404 -405 730 0
405 629 731 0
-405 -629 0
-405 -731 0
406 407 -539 0
406 407 -689 0
406 407 -690 0
-406 -407 0
-406 539 689 690 0
407 568 737 738 0
-407 -568 0
-407 -738 0
-407 -737 0
408 522 760 761 0
-408 -522 0
-408 -761 0
-408 -760 0
409 -410 -431 -435 -440 0
-409 440 0
-409 410 0
-409 435 0
-409 431 0
410 -411 -416 -421 -426 0
-410 426 0
-410 411 0
-410 421 0
-410 416 0
411 412 413 -414 0
411 413 -414 751 0
-411 414 0
-411 -413 0
-411 -412 -751 0
412 -576 -658 0
-412 576 0
-412 658 0
413 623 720 721 0
-413 -623 0
-413 -721 0
-413 -720 0
414 415 -574 0
414 415 -747 0
414 415 -748 0
-414 -415 0
-414 574 747 748 0
415 552 709 710 0
-415 -552 0
-415 -710 0
-415 -709 0
416 -418 -419 717 0
416 417 -418 -419 0
-416 419 0
-416 418 0
-416 -417 -717 0
417 -556 -655 0
-417 556 0
-417 655 0
418 662 752 0
418 661 753 0
418 662 753 0
418 661 752 0
-418 -661 -662 0
-418 -752 -753 0
419 420 -642 0
419 420 -752 0
419 420 -753 0
-419 -420 0
-419 642 752 753 0
420 625 724 725 0
-420 -625 0
-420 -725 0
-420 -724 0
421 422 423 -424 0
421 423 -424 -756 0
-421 424 0
-421 -423 0
-421 -422 756 0
422 645 757 0
-422 -645 0
-422 -757 0
423 528 669 670 0
-423 -528 0
-423 -670 0
-423 -669 0
424 425 -532 0
424 425 -675 0
424 425 -676 0
-424 -425 0
-424 532 675 676 0
425 575 749 750 0
-425 -575 0
-425 -750 0
-425 -749 0
426 -428 430 -716 0
426 427 -428 430 0
-426 428 0
-426 -430 0
-426 -427 716 0
427 620 717 0
-427 -620 0
-427 -717 0
428 429 -554 0
428 429 -713 0
428 429 -714 0
-428 -429 0
-428 554 713 714 0
429 551 707 708 0
-429 -551 0
-429 -708 0
-429 -707 0
430 644 754 755 0
-430 -644 0
-430 -755 0
-430 -754 0
228 431 -432 433 0
431 -432 433 710 0
-431 432 0
-431 -433 0
-228 -431 -710 0
44 53 432 0
432 704 712 0
53 432 712 0
44 432 704 0
-44 -432 -712 0
-53 -432 -704 0
433 -434 672 0
433 529 671 672 0
-433 -672 0
-433 434 -529 0
-433 434 -671 0
434 594 673 0
-434 -594 0
-434 -673 0
435 -436 -437 -438 -439 0
-435 439 0
-435 436 0
-435 438 0
-435 437 0
436 697 716 0
436 696 717 0
436 697 717 0
436 696 716 0
-436 -696 -697 0
-436 -716 -717 0
437 699 718 0
437 698 719 0
437 699 719 0
437 698 718 0
-437 -698 -699 0
-437 -718 -719 0
438 747 754 0
438 746 755 0
438 747 755 0
438 746 754 0
-438 -746 -747 0
-438 -754 -755 0
439 675 744 0
439 674 745 0
439 675 745 0
439 674 744 0
-439 -674 -675 0
-439 -744 -745 0
59 268 440 0
440 706 714 0
268 440 714 0
59 440 706 0
-59 -440 -714 0
-268 -440 -706 0
441 -442 -460 -465 -470 0
-441 470 0
-441 442 0
-441 465 0
-441 460 0
442 -443 -451 -453 -455 0
-442 455 0
-442 443 0
-442 453 0
-442 451 0
443 -444 -446 -448 -449 0
-443 449 0
-443 444 0
-443 448 0
-443 446 0
444 445 -527 0
444 445 -667 0
444 445 -668 0
-444 -445 0
-444 527 667 668 0
445 559 721 722 0
-445 -559 0
-445 -722 0
-445 -721 0
184 446 -564 0
446 447 727 0
184 446 447 0
446 -564 727 0
-184 -446 -727 0
-446 -447 564 0
447 729 730 0
-447 -729 0
-447 -730 0
-434 448 -569 0
30 448 672 0
30 -434 448 0
448 -569 672 0
434 -448 -672 0
-30 -448 569 0
449 450 -555 0
449 450 -715 0
449 450 -716 0
-449 -450 0
-449 555 715 716 0
450 619 714 715 0
-450 -619 0
-450 -715 0
-450 -714 0
451 452 682 0
451 452 681 683 0
-451 -452 0
-451 -682 -683 0
-451 -681 -682 0
452 -706 -707 0
452 -707 -708 0
-452 707 0
-452 706 708 0
453 454 693 0
453 454 692 694 0
-453 -454 0
-453 -693 -694 0
-453 -692 -693 0
454 -708 -709 0
454 -709 -710 0
-454 709 0
-454 708 710 0
455 456 -457 459 0
455 -457 459 673 0
-455 457 0
-455 -459 0
-455 -456 -673 0
456 -530 -651 0
-456 530 0
-456 651 0
457 458 -558 0
457 458 -719 0
457 458 -720 0
-457 -458 0
-457 558 719 720 0
458 561 725 726 0
-458 -561 0
-458 -726 0
-458 -725 0
459 614 704 705 0
-459 -614 0
-459 -705 0
-459 -704 0
460 -462 464 -533 0
460 461 -462 464 0
-460 462 0
-460 -464 0
-460 -461 533 0
461 677 678 0
-461 -677 0
-461 -678 0
462 463 758 0
462 463 757 759 0
-462 -463 0
-462 -758 -759 0
-462 -757 -758 0
463 -730 -731 0
463 -731 -732 0
-463 731 0
-463 730 732 0
464 -755 -756 0
464 -756 -757 0
-464 756 0
-464 755 757 0
465 466 467 -468 0
465 467 -468 -718 0
-465 468 0
-465 -467 0
-465 -466 718 0
466 622 719 0
-466 -622 0
-466 -719 0
467 535 681 682 0
-467 -535 0
-467 -682 0
-467 -681 0
468 469 733 0
468 469 732 734 0
-468 -469 0
-468 -733 -734 0
-468 -732 -733 0
469 549 703 704 0
-469 -549 0
-469 -704 0
-469 -703 0
470 -471 -472 -474 -476 0
-470 476 0
-470 471 0
-470 474 0
-470 472 0
164 471 -548 0
79 471 699 0
79 164 471 0
471 -548 699 0
-164 -471 -699 0
-79 -471 548 0
472 473 -550 0
472 473 -705 0
472 473 -706 0
-472 -473 0
-472 550 705 706 0
473 639 748 749 0
-473 -639 0
-473 -749 0
-473 -748 0
474 475 743 0
474 475 742 744 0
-474 -475 0
-474 -743 -744 0
-474 -742 -743 0
475 -760 -761 0
475 -661 -761 0
-475 761 0
-475 661 760 0
476 477 750 0
476 477 749 751 0
-476 -477 0
-476 -750 -751 0
-476 -749 -750 0
477 -747 -748 0
477 -748 -749 0
-477 748 0
-477 747 749 0
478 -479 -482 -485 -492 0
-478 492 0
-478 479 0
-478 485 0
-478 482 0
479 480 481 0
83 479 481 547 0
-83 479 481 -547 0
-479 -481 0
-83 -479 -480 547 0
83 -479 -480 -547 0
84 480 700 0
-480 -700 0
-84 -480 0
481 576 -641 751 0
481 576 658 751 0
-481 -576 0
-481 -751 0
-481 641 -658 0
482 483 484 0
70 482 484 577 0
-70 482 484 -577 0
-482 -484 0
-70 -482 -483 577 0
70 -482 -483 -577 0
71 483 752 0
-483 -752 0
-71 -483 0
484 524 650 663 0
484 -589 650 663 0
-484 -663 0
-484 -650 0
-484 -524 589 0
485 486 -489 0
-65 485 -489 -583 0
-485 489 0
65 -485 -486 0
-485 -486 583 0
66 486 -487 0
-66 -486 0
-486 487 0
65 487 -488 0
-65 487 488 0
-65 -487 -488 0
65 -487 488 0
488 -583 -648 0
488 583 648 0
-488 583 -648 0
-488 -583 648 0
489 491 -579 0
489 490 491 0
-489 -491 0
-489 -490 579 0
147 490 754 0
-490 -754 0
-147 -490 0
65 -66 491 -583 648 0
-65 -66 491 583 648 0
-65 -66 491 -583 -648 0
66 -491 0
65 -491 -648 0
-491 583 -648 0
65 -491 583 0
-65 -491 -583 648 0
492 -493 -496 -577 0
483 492 -493 -496 0
-492 496 0
-492 493 0
-483 -492 577 0
493 494 -541 0
493 495 -531 0
493 -531 -541 0
493 494 495 0
-493 -495 541 0
-493 -494 531 0
105 494 674 0
-494 -674 0
-105 -494 0
123 495 692 0
-495 -692 0
-123 -495 0
496 -497 501 -547 0
480 496 -497 501 0
-496 497 0
-496 -501 0
-480 -496 547 0
497 498 500 0
-114 497 498 -573 0
114 497 498 573 0
-497 -498 0
-114 -497 -500 573 0
114 -497 -500 -573 0
498 -499 545 0
-498 -545 0
-498 499 0
98 499 698 0
-499 -698 0
-98 -499 0
111 500 746 0
-500 -746 0
-111 -500 0
-287 -490 501 579 0
287 -490 501 -579 0
490 -501 0
287 -501 579 0
-287 -501 -579 0
502 -503 -506 -508 -513 0
-502 513 0
-502 503 0
-502 508 0
-502 506 0
503 504 505 0
-155 503 504 -557 0
155 503 504 557 0
-503 -504 0
-155 -503 -505 557 0
155 -503 -505 -557 0
504 524 -589 663 0
504 524 650 663 0
-504 -524 0
-504 -663 0
-504 589 -650 0
18 505 718 0
-505 -718 0
-18 -505 0
506 507 664 0
91 92 506 507 0
-506 -507 0
-92 -506 -664 0
-91 -506 -664 0
507 572 -637 745 0
507 572 657 745 0
507 -637 657 745 0
-507 -572 -657 0
-507 -572 637 0
-507 -745 0
-507 637 -657 0
508 509 510 -511 0
-92 508 509 -511 0
-508 511 0
-508 -509 0
92 -508 -510 0
509 582 -647 759 0
509 582 660 759 0
509 -647 660 759 0
-509 -582 -660 0
-509 -582 647 0
-509 -759 0
-509 647 -660 0
91 510 -525 664 0
-91 510 525 664 0
-510 -664 0
-91 -510 -525 0
91 -510 525 0
499 511 512 0
129 511 512 545 0
-129 511 512 -545 0
-511 -512 0
-129 -499 -511 545 0
129 -499 -511 -545 0
512 530 -595 673 0
512 530 651 673 0
512 -595 651 673 0
-512 -530 -651 0
-512 -530 595 0
-512 -673 0
-512 595 -651 0
513 -514 518 519 -520 0
-513 520 0
-513 -519 0
-513 514 0
-513 -518 0
505 514 515 -516 0
514 515 -516 -557 0
-514 516 0
-514 -515 0
-505 -514 557 0
-117 515 -728 0
-131 515 -728 0
-515 728 0
117 131 -515 0
495 516 517 0
143 516 517 541 0
-143 516 517 -541 0
-516 -517 0
-143 -495 -516 541 0
143 -495 -516 -541 0
517 578 -643 753 0
517 578 659 753 0
517 -643 659 753 0
-517 -578 -659 0
-517 -578 643 0
-517 -753 0
-517 643 -659 0
117 -131 518 563 728 0
117 131 518 -563 728 0
-518 -728 0
-131 -518 -563 0
-117 -518 0
131 -518 563 0
519 576 658 751 0
519 -641 658 751 0
-519 -751 0
-519 -658 0
-519 -576 641 0
494 520 521 0
108 520 521 531 0
-108 520 521 -531 0
-520 -521 0
-108 -494 -520 531 0
108 -494 -520 -531 0
-500 521 573 0
-521 -573 0
500 -521 0
1 -2 0
-1 2 0
762 0

